data/lp_files/q3/68_0.lp
\ Model foo
\ LP format - for model browsing. Use MPS format to capture full model detail.
Minimize
  z
Subject To
 allocateEach[1]: x[1,1] + x[2,1] + x[3,1] + x[4,1] = 1
 allocateEach[2]: x[1,2] + x[2,2] + x[3,2] + x[4,2] = 1
 allocateEach[3]: x[1,3] + x[2,3] + x[3,3] + x[4,3] = 1
 allocateEach[4]: x[1,4] + x[2,4] + x[3,4] + x[4,4] = 1
 allocateEach[5]: x[1,5] + x[2,5] + x[3,5] + x[4,5] = 1
 allocateEach[6]: x[1,6] + x[2,6] + x[3,6] + x[4,6] = 1
 allocateEach[7]: x[1,7] + x[2,7] + x[3,7] + x[4,7] = 1
 allocateEach[8]: x[1,8] + x[2,8] + x[3,8] + x[4,8] = 1
 allocateAllCash: cashProportion[1] + cashProportion[2] + cashProportion[3]
   + cashProportion[4] = 1
 findWorstP[1,2]: z + 0.0139485577191318 cashProportion[1]
   - 0.0139485577191318 cashProportion[2] + 0.1298889694805557 x[1,1]
   + 0.0906377280589187 x[1,2] + 0.248842269709312 x[1,3]
   + 0.2007476426937455 x[1,4] + 0.024967918317246 x[1,5]
   + 0.0389722702672544 x[1,6] + 0.1884450147854712 x[1,7]
   + 0.0635496289683647 x[1,8] - 0.1298889694805557 x[2,1]
   - 0.0906377280589187 x[2,2] - 0.248842269709312 x[2,3]
   - 0.2007476426937455 x[2,4] - 0.024967918317246 x[2,5]
   - 0.0389722702672544 x[2,6] - 0.1884450147854712 x[2,7]
   - 0.0635496289683647 x[2,8] >= 0
 findWorstP[1,3]: z + 0.0139485577191318 cashProportion[1]
   - 0.0139485577191318 cashProportion[3] + 0.1298889694805557 x[1,1]
   + 0.0906377280589187 x[1,2] + 0.248842269709312 x[1,3]
   + 0.2007476426937455 x[1,4] + 0.024967918317246 x[1,5]
   + 0.0389722702672544 x[1,6] + 0.1884450147854712 x[1,7]
   + 0.0635496289683647 x[1,8] - 0.1298889694805557 x[3,1]
   - 0.0906377280589187 x[3,2] - 0.248842269709312 x[3,3]
   - 0.2007476426937455 x[3,4] - 0.024967918317246 x[3,5]
   - 0.0389722702672544 x[3,6] - 0.1884450147854712 x[3,7]
   - 0.0635496289683647 x[3,8] >= 0
 findWorstP[1,4]: z + 0.0139485577191318 cashProportion[1]
   - 0.0139485577191318 cashProportion[4] + 0.1298889694805557 x[1,1]
   + 0.0906377280589187 x[1,2] + 0.248842269709312 x[1,3]
   + 0.2007476426937455 x[1,4] + 0.024967918317246 x[1,5]
   + 0.0389722702672544 x[1,6] + 0.1884450147854712 x[1,7]
   + 0.0635496289683647 x[1,8] - 0.1298889694805557 x[4,1]
   - 0.0906377280589187 x[4,2] - 0.248842269709312 x[4,3]
   - 0.2007476426937455 x[4,4] - 0.024967918317246 x[4,5]
   - 0.0389722702672544 x[4,6] - 0.1884450147854712 x[4,7]
   - 0.0635496289683647 x[4,8] >= 0
 findWorstP[2,1]: z - 0.0116705179375861 cashProportion[1]
   + 0.0116705179375861 cashProportion[2] - 0.2272249842448008 x[1,1]
   - 0.195924655136195 x[1,2] - 0.0802231403029667 x[1,3]
   - 0.1026071937072568 x[1,4] - 0.0563686016385407 x[1,5]
   - 0.0594729594099386 x[1,6] - 0.1064818056625353 x[1,7]
   - 0.1600261419601802 x[1,8] + 0.2272249842448008 x[2,1]
   + 0.195924655136195 x[2,2] + 0.0802231403029667 x[2,3]
   + 0.1026071937072568 x[2,4] + 0.0563686016385407 x[2,5]
   + 0.0594729594099386 x[2,6] + 0.1064818056625353 x[2,7]
   + 0.1600261419601802 x[2,8] >= 0
 findWorstP[2,3]: z + 0.0116705179375861 cashProportion[2]
   - 0.0116705179375861 cashProportion[3] + 0.2272249842448008 x[2,1]
   + 0.195924655136195 x[2,2] + 0.0802231403029667 x[2,3]
   + 0.1026071937072568 x[2,4] + 0.0563686016385407 x[2,5]
   + 0.0594729594099386 x[2,6] + 0.1064818056625353 x[2,7]
   + 0.1600261419601802 x[2,8] - 0.2272249842448008 x[3,1]
   - 0.195924655136195 x[3,2] - 0.0802231403029667 x[3,3]
   - 0.1026071937072568 x[3,4] - 0.0563686016385407 x[3,5]
   - 0.0594729594099386 x[3,6] - 0.1064818056625353 x[3,7]
   - 0.1600261419601802 x[3,8] >= 0
 findWorstP[2,4]: z + 0.0116705179375861 cashProportion[2]
   - 0.0116705179375861 cashProportion[4] + 0.2272249842448008 x[2,1]
   + 0.195924655136195 x[2,2] + 0.0802231403029667 x[2,3]
   + 0.1026071937072568 x[2,4] + 0.0563686016385407 x[2,5]
   + 0.0594729594099386 x[2,6] + 0.1064818056625353 x[2,7]
   + 0.1600261419601802 x[2,8] - 0.2272249842448008 x[4,1]
   - 0.195924655136195 x[4,2] - 0.0802231403029667 x[4,3]
   - 0.1026071937072568 x[4,4] - 0.0563686016385407 x[4,5]
   - 0.0594729594099386 x[4,6] - 0.1064818056625353 x[4,7]
   - 0.1600261419601802 x[4,8] >= 0
 findWorstP[3,1]: z - 0.0130558529388725 cashProportion[1]
   + 0.0130558529388725 cashProportion[3] - 0.2059430242577748 x[1,1]
   - 0.2435699924276053 x[1,2] - 0.0189832101731206 x[1,3]
   - 0.1411598819750894 x[1,4] - 0.0468705120505523 x[1,5]
   - 0.0146225552915372 x[1,6] - 0.2512729456615401 x[1,7]
   - 0.0645220252239079 x[1,8] + 0.2059430242577748 x[3,1]
   + 0.2435699924276053 x[3,2] + 0.0189832101731206 x[3,3]
   + 0.1411598819750894 x[3,4] + 0.0468705120505523 x[3,5]
   + 0.0146225552915372 x[3,6] + 0.2512729456615401 x[3,7]
   + 0.0645220252239079 x[3,8] >= 0
 findWorstP[3,2]: z - 0.0130558529388725 cashProportion[2]
   + 0.0130558529388725 cashProportion[3] - 0.2059430242577748 x[2,1]
   - 0.2435699924276053 x[2,2] - 0.0189832101731206 x[2,3]
   - 0.1411598819750894 x[2,4] - 0.0468705120505523 x[2,5]
   - 0.0146225552915372 x[2,6] - 0.2512729456615401 x[2,7]
   - 0.0645220252239079 x[2,8] + 0.2059430242577748 x[3,1]
   + 0.2435699924276053 x[3,2] + 0.0189832101731206 x[3,3]
   + 0.1411598819750894 x[3,4] + 0.0468705120505523 x[3,5]
   + 0.0146225552915372 x[3,6] + 0.2512729456615401 x[3,7]
   + 0.0645220252239079 x[3,8] >= 0
 findWorstP[3,4]: z + 0.0130558529388725 cashProportion[3]
   - 0.0130558529388725 cashProportion[4] + 0.2059430242577748 x[3,1]
   + 0.2435699924276053 x[3,2] + 0.0189832101731206 x[3,3]
   + 0.1411598819750894 x[3,4] + 0.0468705120505523 x[3,5]
   + 0.0146225552915372 x[3,6] + 0.2512729456615401 x[3,7]
   + 0.0645220252239079 x[3,8] - 0.2059430242577748 x[4,1]
   - 0.2435699924276053 x[4,2] - 0.0189832101731206 x[4,3]
   - 0.1411598819750894 x[4,4] - 0.0468705120505523 x[4,5]
   - 0.0146225552915372 x[4,6] - 0.2512729456615401 x[4,7]
   - 0.0645220252239079 x[4,8] >= 0
 findWorstP[4,1]: z - 0.0148170099273967 cashProportion[1]
   + 0.0148170099273967 cashProportion[4] - 0.17848570158542 x[1,1]
   - 0.2181360201511335 x[1,2] - 0.0538450140761594 x[1,3]
   - 0.00192621129056156 x[1,4] - 0.0372203289376204 x[1,5]
   - 0.1949029485849755 x[1,6] - 0.0223440509705141 x[1,7]
   - 0.2783227144762187 x[1,8] + 0.17848570158542 x[4,1]
   + 0.2181360201511335 x[4,2] + 0.0538450140761594 x[4,3]
   + 0.00192621129056156 x[4,4] + 0.0372203289376204 x[4,5]
   + 0.1949029485849755 x[4,6] + 0.0223440509705141 x[4,7]
   + 0.2783227144762187 x[4,8] >= 0
 findWorstP[4,2]: z - 0.0148170099273967 cashProportion[2]
   + 0.0148170099273967 cashProportion[4] - 0.17848570158542 x[2,1]
   - 0.2181360201511335 x[2,2] - 0.0538450140761594 x[2,3]
   - 0.00192621129056156 x[2,4] - 0.0372203289376204 x[2,5]
   - 0.1949029485849755 x[2,6] - 0.0223440509705141 x[2,7]
   - 0.2783227144762187 x[2,8] + 0.17848570158542 x[4,1]
   + 0.2181360201511335 x[4,2] + 0.0538450140761594 x[4,3]
   + 0.00192621129056156 x[4,4] + 0.0372203289376204 x[4,5]
   + 0.1949029485849755 x[4,6] + 0.0223440509705141 x[4,7]
   + 0.2783227144762187 x[4,8] >= 0
 findWorstP[4,3]: z - 0.0148170099273967 cashProportion[3]
   + 0.0148170099273967 cashProportion[4] - 0.17848570158542 x[3,1]
   - 0.2181360201511335 x[3,2] - 0.0538450140761594 x[3,3]
   - 0.00192621129056156 x[3,4] - 0.0372203289376204 x[3,5]
   - 0.1949029485849755 x[3,6] - 0.0223440509705141 x[3,7]
   - 0.2783227144762187 x[3,8] + 0.17848570158542 x[4,1]
   + 0.2181360201511335 x[4,2] + 0.0538450140761594 x[4,3]
   + 0.00192621129056156 x[4,4] + 0.0372203289376204 x[4,5]
   + 0.1949029485849755 x[4,6] + 0.0223440509705141 x[4,7]
   + 0.2783227144762187 x[4,8] >= 0
Bounds
 z <= 1
 -infinity <= cashProportion[1] <= 1
 -infinity <= cashProportion[2] <= 1
 -infinity <= cashProportion[3] <= 1
 -infinity <= cashProportion[4] <= 1
Binaries
 x[1,1] x[1,2] x[1,3] x[1,4] x[1,5] x[1,6] x[1,7] x[1,8] x[2,1] x[2,2]
 x[2,3] x[2,4] x[2,5] x[2,6] x[2,7] x[2,8] x[3,1] x[3,2] x[3,3] x[3,4]
 x[3,5] x[3,6] x[3,7] x[3,8] x[4,1] x[4,2] x[4,3] x[4,4] x[4,5] x[4,6]
 x[4,7] x[4,8]
End
