data/mps_files/pEFS/68_0.mps
NAME foo
ROWS
 N  OBJ
 E  allocateEach[1]
 E  allocateEach[2]
 E  allocateEach[3]
 E  allocateEach[4]
 E  allocateEach[5]
 E  allocateEach[6]
 E  allocateEach[7]
 E  allocateEach[8]
 E  allocateAllCash
 G  findWorstP[1,2]
 G  findWorstP[1,3]
 G  findWorstP[1,4]
 G  findWorstP[2,1]
 G  findWorstP[2,3]
 G  findWorstP[2,4]
 G  findWorstP[3,1]
 G  findWorstP[3,2]
 G  findWorstP[3,4]
 G  findWorstP[4,1]
 G  findWorstP[4,2]
 G  findWorstP[4,3]
COLUMNS
    z         OBJ       1
    z         findWorstP[1,2]  1
    z         findWorstP[1,3]  1
    z         findWorstP[1,4]  1
    z         findWorstP[2,1]  1
    z         findWorstP[2,3]  1
    z         findWorstP[2,4]  1
    z         findWorstP[3,1]  1
    z         findWorstP[3,2]  1
    z         findWorstP[3,4]  1
    z         findWorstP[4,1]  1
    z         findWorstP[4,2]  1
    z         findWorstP[4,3]  1
    cashProportion[1]  allocateAllCash  1
    cashProportion[1]  findWorstP[1,2]  1.3948557719131841e-02
    cashProportion[1]  findWorstP[1,3]  1.3948557719131841e-02
    cashProportion[1]  findWorstP[1,4]  1.3948557719131841e-02
    cashProportion[1]  findWorstP[2,1]  -1.1670517937586073e-02
    cashProportion[1]  findWorstP[3,1]  -1.3055852938872499e-02
    cashProportion[1]  findWorstP[4,1]  -1.4817009927396652e-02
    cashProportion[2]  allocateAllCash  1
    cashProportion[2]  findWorstP[1,2]  -1.3948557719131841e-02
    cashProportion[2]  findWorstP[2,1]  1.1670517937586073e-02
    cashProportion[2]  findWorstP[2,3]  1.1670517937586073e-02
    cashProportion[2]  findWorstP[2,4]  1.1670517937586073e-02
    cashProportion[2]  findWorstP[3,2]  -1.3055852938872499e-02
    cashProportion[2]  findWorstP[4,2]  -1.4817009927396652e-02
    cashProportion[3]  allocateAllCash  1
    cashProportion[3]  findWorstP[1,3]  -1.3948557719131841e-02
    cashProportion[3]  findWorstP[2,3]  -1.1670517937586073e-02
    cashProportion[3]  findWorstP[3,1]  1.3055852938872499e-02
    cashProportion[3]  findWorstP[3,2]  1.3055852938872499e-02
    cashProportion[3]  findWorstP[3,4]  1.3055852938872499e-02
    cashProportion[3]  findWorstP[4,3]  -1.4817009927396652e-02
    cashProportion[4]  allocateAllCash  1
    cashProportion[4]  findWorstP[1,4]  -1.3948557719131841e-02
    cashProportion[4]  findWorstP[2,4]  -1.1670517937586073e-02
    cashProportion[4]  findWorstP[3,4]  -1.3055852938872499e-02
    cashProportion[4]  findWorstP[4,1]  1.4817009927396652e-02
    cashProportion[4]  findWorstP[4,2]  1.4817009927396652e-02
    cashProportion[4]  findWorstP[4,3]  1.4817009927396652e-02
    MARKER    'MARKER'                 'INTORG'
    x[1,1]    allocateEach[1]  1
    x[1,1]    findWorstP[1,2]  1.2988896948055570e-01
    x[1,1]    findWorstP[1,3]  1.2988896948055570e-01
    x[1,1]    findWorstP[1,4]  1.2988896948055570e-01
    x[1,1]    findWorstP[2,1]  -2.2722498424480084e-01
    x[1,1]    findWorstP[3,1]  -2.0594302425777478e-01
    x[1,1]    findWorstP[4,1]  -1.7848570158542004e-01
    x[1,2]    allocateEach[2]  1
    x[1,2]    findWorstP[1,2]  0.0906377280589187
    x[1,2]    findWorstP[1,3]  0.0906377280589187
    x[1,2]    findWorstP[1,4]  0.0906377280589187
    x[1,2]    findWorstP[2,1]  -0.195924655136195
    x[1,2]    findWorstP[3,1]  -2.4356999242760530e-01
    x[1,2]    findWorstP[4,1]  -2.1813602015113351e-01
    x[1,3]    allocateEach[3]  1
    x[1,3]    findWorstP[1,2]  2.4884226970931203e-01
    x[1,3]    findWorstP[1,3]  2.4884226970931203e-01
    x[1,3]    findWorstP[1,4]  2.4884226970931203e-01
    x[1,3]    findWorstP[2,1]  -8.0223140302966664e-02
    x[1,3]    findWorstP[3,1]  -1.8983210173120612e-02
    x[1,3]    findWorstP[4,1]  -5.3845014076159430e-02
    x[1,4]    allocateEach[4]  1
    x[1,4]    findWorstP[1,2]  2.0074764269374545e-01
    x[1,4]    findWorstP[1,3]  2.0074764269374545e-01
    x[1,4]    findWorstP[1,4]  2.0074764269374545e-01
    x[1,4]    findWorstP[2,1]  -1.0260719370725675e-01
    x[1,4]    findWorstP[3,1]  -1.4115988197508944e-01
    x[1,4]    findWorstP[4,1]  -1.9262112905615645e-03
    x[1,5]    allocateEach[5]  1
    x[1,5]    findWorstP[1,2]  2.4967918317245992e-02
    x[1,5]    findWorstP[1,3]  2.4967918317245992e-02
    x[1,5]    findWorstP[1,4]  2.4967918317245992e-02
    x[1,5]    findWorstP[2,1]  -5.6368601638540725e-02
    x[1,5]    findWorstP[3,1]  -4.6870512050552267e-02
    x[1,5]    findWorstP[4,1]  -3.7220328937620388e-02
    x[1,6]    allocateEach[6]  1
    x[1,6]    findWorstP[1,2]  3.8972270267254361e-02
    x[1,6]    findWorstP[1,3]  3.8972270267254361e-02
    x[1,6]    findWorstP[1,4]  3.8972270267254361e-02
    x[1,6]    findWorstP[2,1]  -5.9472959409938631e-02
    x[1,6]    findWorstP[3,1]  -1.4622555291537198e-02
    x[1,6]    findWorstP[4,1]  -1.9490294858497553e-01
    x[1,7]    allocateEach[7]  1
    x[1,7]    findWorstP[1,2]  1.8844501478547115e-01
    x[1,7]    findWorstP[1,3]  1.8844501478547115e-01
    x[1,7]    findWorstP[1,4]  1.8844501478547115e-01
    x[1,7]    findWorstP[2,1]  -1.0648180566253532e-01
    x[1,7]    findWorstP[3,1]  -2.5127294566154013e-01
    x[1,7]    findWorstP[4,1]  -2.2344050970514149e-02
    x[1,8]    allocateEach[8]  1
    x[1,8]    findWorstP[1,2]  6.3549628968364663e-02
    x[1,8]    findWorstP[1,3]  6.3549628968364663e-02
    x[1,8]    findWorstP[1,4]  6.3549628968364663e-02
    x[1,8]    findWorstP[2,1]  -1.6002614196018022e-01
    x[1,8]    findWorstP[3,1]  -6.4522025223907875e-02
    x[1,8]    findWorstP[4,1]  -2.7832271447621870e-01
    x[2,1]    allocateEach[1]  1
    x[2,1]    findWorstP[1,2]  -1.2988896948055570e-01
    x[2,1]    findWorstP[2,1]  2.2722498424480084e-01
    x[2,1]    findWorstP[2,3]  2.2722498424480084e-01
    x[2,1]    findWorstP[2,4]  2.2722498424480084e-01
    x[2,1]    findWorstP[3,2]  -2.0594302425777478e-01
    x[2,1]    findWorstP[4,2]  -1.7848570158542004e-01
    x[2,2]    allocateEach[2]  1
    x[2,2]    findWorstP[1,2]  -0.0906377280589187
    x[2,2]    findWorstP[2,1]  0.195924655136195
    x[2,2]    findWorstP[2,3]  0.195924655136195
    x[2,2]    findWorstP[2,4]  0.195924655136195
    x[2,2]    findWorstP[3,2]  -2.4356999242760530e-01
    x[2,2]    findWorstP[4,2]  -2.1813602015113351e-01
    x[2,3]    allocateEach[3]  1
    x[2,3]    findWorstP[1,2]  -2.4884226970931203e-01
    x[2,3]    findWorstP[2,1]  8.0223140302966664e-02
    x[2,3]    findWorstP[2,3]  8.0223140302966664e-02
    x[2,3]    findWorstP[2,4]  8.0223140302966664e-02
    x[2,3]    findWorstP[3,2]  -1.8983210173120612e-02
    x[2,3]    findWorstP[4,2]  -5.3845014076159430e-02
    x[2,4]    allocateEach[4]  1
    x[2,4]    findWorstP[1,2]  -2.0074764269374545e-01
    x[2,4]    findWorstP[2,1]  1.0260719370725675e-01
    x[2,4]    findWorstP[2,3]  1.0260719370725675e-01
    x[2,4]    findWorstP[2,4]  1.0260719370725675e-01
    x[2,4]    findWorstP[3,2]  -1.4115988197508944e-01
    x[2,4]    findWorstP[4,2]  -1.9262112905615645e-03
    x[2,5]    allocateEach[5]  1
    x[2,5]    findWorstP[1,2]  -2.4967918317245992e-02
    x[2,5]    findWorstP[2,1]  5.6368601638540725e-02
    x[2,5]    findWorstP[2,3]  5.6368601638540725e-02
    x[2,5]    findWorstP[2,4]  5.6368601638540725e-02
    x[2,5]    findWorstP[3,2]  -4.6870512050552267e-02
    x[2,5]    findWorstP[4,2]  -3.7220328937620388e-02
    x[2,6]    allocateEach[6]  1
    x[2,6]    findWorstP[1,2]  -3.8972270267254361e-02
    x[2,6]    findWorstP[2,1]  5.9472959409938631e-02
    x[2,6]    findWorstP[2,3]  5.9472959409938631e-02
    x[2,6]    findWorstP[2,4]  5.9472959409938631e-02
    x[2,6]    findWorstP[3,2]  -1.4622555291537198e-02
    x[2,6]    findWorstP[4,2]  -1.9490294858497553e-01
    x[2,7]    allocateEach[7]  1
    x[2,7]    findWorstP[1,2]  -1.8844501478547115e-01
    x[2,7]    findWorstP[2,1]  1.0648180566253532e-01
    x[2,7]    findWorstP[2,3]  1.0648180566253532e-01
    x[2,7]    findWorstP[2,4]  1.0648180566253532e-01
    x[2,7]    findWorstP[3,2]  -2.5127294566154013e-01
    x[2,7]    findWorstP[4,2]  -2.2344050970514149e-02
    x[2,8]    allocateEach[8]  1
    x[2,8]    findWorstP[1,2]  -6.3549628968364663e-02
    x[2,8]    findWorstP[2,1]  1.6002614196018022e-01
    x[2,8]    findWorstP[2,3]  1.6002614196018022e-01
    x[2,8]    findWorstP[2,4]  1.6002614196018022e-01
    x[2,8]    findWorstP[3,2]  -6.4522025223907875e-02
    x[2,8]    findWorstP[4,2]  -2.7832271447621870e-01
    x[3,1]    allocateEach[1]  1
    x[3,1]    findWorstP[1,3]  -1.2988896948055570e-01
    x[3,1]    findWorstP[2,3]  -2.2722498424480084e-01
    x[3,1]    findWorstP[3,1]  2.0594302425777478e-01
    x[3,1]    findWorstP[3,2]  2.0594302425777478e-01
    x[3,1]    findWorstP[3,4]  2.0594302425777478e-01
    x[3,1]    findWorstP[4,3]  -1.7848570158542004e-01
    x[3,2]    allocateEach[2]  1
    x[3,2]    findWorstP[1,3]  -0.0906377280589187
    x[3,2]    findWorstP[2,3]  -0.195924655136195
    x[3,2]    findWorstP[3,1]  2.4356999242760530e-01
    x[3,2]    findWorstP[3,2]  2.4356999242760530e-01
    x[3,2]    findWorstP[3,4]  2.4356999242760530e-01
    x[3,2]    findWorstP[4,3]  -2.1813602015113351e-01
    x[3,3]    allocateEach[3]  1
    x[3,3]    findWorstP[1,3]  -2.4884226970931203e-01
    x[3,3]    findWorstP[2,3]  -8.0223140302966664e-02
    x[3,3]    findWorstP[3,1]  1.8983210173120612e-02
    x[3,3]    findWorstP[3,2]  1.8983210173120612e-02
    x[3,3]    findWorstP[3,4]  1.8983210173120612e-02
    x[3,3]    findWorstP[4,3]  -5.3845014076159430e-02
    x[3,4]    allocateEach[4]  1
    x[3,4]    findWorstP[1,3]  -2.0074764269374545e-01
    x[3,4]    findWorstP[2,3]  -1.0260719370725675e-01
    x[3,4]    findWorstP[3,1]  1.4115988197508944e-01
    x[3,4]    findWorstP[3,2]  1.4115988197508944e-01
    x[3,4]    findWorstP[3,4]  1.4115988197508944e-01
    x[3,4]    findWorstP[4,3]  -1.9262112905615645e-03
    x[3,5]    allocateEach[5]  1
    x[3,5]    findWorstP[1,3]  -2.4967918317245992e-02
    x[3,5]    findWorstP[2,3]  -5.6368601638540725e-02
    x[3,5]    findWorstP[3,1]  4.6870512050552267e-02
    x[3,5]    findWorstP[3,2]  4.6870512050552267e-02
    x[3,5]    findWorstP[3,4]  4.6870512050552267e-02
    x[3,5]    findWorstP[4,3]  -3.7220328937620388e-02
    x[3,6]    allocateEach[6]  1
    x[3,6]    findWorstP[1,3]  -3.8972270267254361e-02
    x[3,6]    findWorstP[2,3]  -5.9472959409938631e-02
    x[3,6]    findWorstP[3,1]  1.4622555291537198e-02
    x[3,6]    findWorstP[3,2]  1.4622555291537198e-02
    x[3,6]    findWorstP[3,4]  1.4622555291537198e-02
    x[3,6]    findWorstP[4,3]  -1.9490294858497553e-01
    x[3,7]    allocateEach[7]  1
    x[3,7]    findWorstP[1,3]  -1.8844501478547115e-01
    x[3,7]    findWorstP[2,3]  -1.0648180566253532e-01
    x[3,7]    findWorstP[3,1]  2.5127294566154013e-01
    x[3,7]    findWorstP[3,2]  2.5127294566154013e-01
    x[3,7]    findWorstP[3,4]  2.5127294566154013e-01
    x[3,7]    findWorstP[4,3]  -2.2344050970514149e-02
    x[3,8]    allocateEach[8]  1
    x[3,8]    findWorstP[1,3]  -6.3549628968364663e-02
    x[3,8]    findWorstP[2,3]  -1.6002614196018022e-01
    x[3,8]    findWorstP[3,1]  6.4522025223907875e-02
    x[3,8]    findWorstP[3,2]  6.4522025223907875e-02
    x[3,8]    findWorstP[3,4]  6.4522025223907875e-02
    x[3,8]    findWorstP[4,3]  -2.7832271447621870e-01
    x[4,1]    allocateEach[1]  1
    x[4,1]    findWorstP[1,4]  -1.2988896948055570e-01
    x[4,1]    findWorstP[2,4]  -2.2722498424480084e-01
    x[4,1]    findWorstP[3,4]  -2.0594302425777478e-01
    x[4,1]    findWorstP[4,1]  1.7848570158542004e-01
    x[4,1]    findWorstP[4,2]  1.7848570158542004e-01
    x[4,1]    findWorstP[4,3]  1.7848570158542004e-01
    x[4,2]    allocateEach[2]  1
    x[4,2]    findWorstP[1,4]  -0.0906377280589187
    x[4,2]    findWorstP[2,4]  -0.195924655136195
    x[4,2]    findWorstP[3,4]  -2.4356999242760530e-01
    x[4,2]    findWorstP[4,1]  2.1813602015113351e-01
    x[4,2]    findWorstP[4,2]  2.1813602015113351e-01
    x[4,2]    findWorstP[4,3]  2.1813602015113351e-01
    x[4,3]    allocateEach[3]  1
    x[4,3]    findWorstP[1,4]  -2.4884226970931203e-01
    x[4,3]    findWorstP[2,4]  -8.0223140302966664e-02
    x[4,3]    findWorstP[3,4]  -1.8983210173120612e-02
    x[4,3]    findWorstP[4,1]  5.3845014076159430e-02
    x[4,3]    findWorstP[4,2]  5.3845014076159430e-02
    x[4,3]    findWorstP[4,3]  5.3845014076159430e-02
    x[4,4]    allocateEach[4]  1
    x[4,4]    findWorstP[1,4]  -2.0074764269374545e-01
    x[4,4]    findWorstP[2,4]  -1.0260719370725675e-01
    x[4,4]    findWorstP[3,4]  -1.4115988197508944e-01
    x[4,4]    findWorstP[4,1]  1.9262112905615645e-03
    x[4,4]    findWorstP[4,2]  1.9262112905615645e-03
    x[4,4]    findWorstP[4,3]  1.9262112905615645e-03
    x[4,5]    allocateEach[5]  1
    x[4,5]    findWorstP[1,4]  -2.4967918317245992e-02
    x[4,5]    findWorstP[2,4]  -5.6368601638540725e-02
    x[4,5]    findWorstP[3,4]  -4.6870512050552267e-02
    x[4,5]    findWorstP[4,1]  3.7220328937620388e-02
    x[4,5]    findWorstP[4,2]  3.7220328937620388e-02
    x[4,5]    findWorstP[4,3]  3.7220328937620388e-02
    x[4,6]    allocateEach[6]  1
    x[4,6]    findWorstP[1,4]  -3.8972270267254361e-02
    x[4,6]    findWorstP[2,4]  -5.9472959409938631e-02
    x[4,6]    findWorstP[3,4]  -1.4622555291537198e-02
    x[4,6]    findWorstP[4,1]  1.9490294858497553e-01
    x[4,6]    findWorstP[4,2]  1.9490294858497553e-01
    x[4,6]    findWorstP[4,3]  1.9490294858497553e-01
    x[4,7]    allocateEach[7]  1
    x[4,7]    findWorstP[1,4]  -1.8844501478547115e-01
    x[4,7]    findWorstP[2,4]  -1.0648180566253532e-01
    x[4,7]    findWorstP[3,4]  -2.5127294566154013e-01
    x[4,7]    findWorstP[4,1]  2.2344050970514149e-02
    x[4,7]    findWorstP[4,2]  2.2344050970514149e-02
    x[4,7]    findWorstP[4,3]  2.2344050970514149e-02
    x[4,8]    allocateEach[8]  1
    x[4,8]    findWorstP[1,4]  -6.3549628968364663e-02
    x[4,8]    findWorstP[2,4]  -1.6002614196018022e-01
    x[4,8]    findWorstP[3,4]  -6.4522025223907875e-02
    x[4,8]    findWorstP[4,1]  2.7832271447621870e-01
    x[4,8]    findWorstP[4,2]  2.7832271447621870e-01
    x[4,8]    findWorstP[4,3]  2.7832271447621870e-01
    MARKER    'MARKER'                 'INTEND'
RHS
    RHS1      allocateEach[1]  1
    RHS1      allocateEach[2]  1
    RHS1      allocateEach[3]  1
    RHS1      allocateEach[4]  1
    RHS1      allocateEach[5]  1
    RHS1      allocateEach[6]  1
    RHS1      allocateEach[7]  1
    RHS1      allocateEach[8]  1
    RHS1      allocateAllCash  1
BOUNDS
 UP BND1      z         1
 MI BND1      cashProportion[1]
 UP BND1      cashProportion[1]  1
 MI BND1      cashProportion[2]
 UP BND1      cashProportion[2]  1
 MI BND1      cashProportion[3]
 UP BND1      cashProportion[3]  1
 MI BND1      cashProportion[4]
 UP BND1      cashProportion[4]  1
 BV BND1      x[1,1]  
 BV BND1      x[1,2]  
 BV BND1      x[1,3]  
 BV BND1      x[1,4]  
 BV BND1      x[1,5]  
 BV BND1      x[1,6]  
 BV BND1      x[1,7]  
 BV BND1      x[1,8]  
 BV BND1      x[2,1]  
 BV BND1      x[2,2]  
 BV BND1      x[2,3]  
 BV BND1      x[2,4]  
 BV BND1      x[2,5]  
 BV BND1      x[2,6]  
 BV BND1      x[2,7]  
 BV BND1      x[2,8]  
 BV BND1      x[3,1]  
 BV BND1      x[3,2]  
 BV BND1      x[3,3]  
 BV BND1      x[3,4]  
 BV BND1      x[3,5]  
 BV BND1      x[3,6]  
 BV BND1      x[3,7]  
 BV BND1      x[3,8]  
 BV BND1      x[4,1]  
 BV BND1      x[4,2]  
 BV BND1      x[4,3]  
 BV BND1      x[4,4]  
 BV BND1      x[4,5]  
 BV BND1      x[4,6]  
 BV BND1      x[4,7]  
 BV BND1      x[4,8]  
ENDATA
